20 965
539 7 515 7 439 11
525 7 445 7 286 10
525 7 444 7 298 7 61 9 875 13
525 7 444 7 298 7 61 9 875 13
525 7 444 7 298 7 61 9 875 13
525 7 444 7 298 7 61 9 875 13
525 7 479 7 356 7 107 9 6 11 781 15 610 22
525 7 479 7 356 7 107 9 6 11 781 15 610 22
525 7 479 7 356 7 107 9 6 11 781 15 610 22
529 7 482 7 303 7 83 9 959 11 739 15 554 22
528 7 482 7 301 7 114 9 881 11 697 15 575 22
525 7 484 7 368 7 123 9 857 11 631 18
528 7 482 7 300 7 181 9 953 11 733 15 582 22
525 7 504 7 362 7 209 9 25 11 818 15 619 21
525 7 504 7 362 7 209 9 25 11 818 15 619 21
525 7 504 7 362 7 209 9 25 11 818 15 619 21
525 7 484 7 368 7 123 9 857 11 631 18
525 7 482 7 362 7 118 9 855 11 676 18
525 7 505 7 381 7 219 9 28 11 852 15 669 21
525 7 477 7 390 7 241 9 75 11 912 18
